solution status: optimal solution found
objective value:                     212644.281887758
d11(0,0)                                            1 	(obj:0)
d11(1,1)                                            1 	(obj:0)
d11(1,2)                                            1 	(obj:0)
d11(2,4)                                            1 	(obj:0)
d11(2,7)                                            1 	(obj:0)
d11(2,10)                                           1 	(obj:0)
d11(3,13)                                           1 	(obj:0)
d11(3,14)                                           1 	(obj:0)
d11(3,15)                                           1 	(obj:0)
d11(3,16)                                           1 	(obj:0)
d11(3,17)                                           1 	(obj:0)
d11(3,18)                                           1 	(obj:0)
d11(3,19)                                           1 	(obj:0)
d11(3,20)                                           1 	(obj:0)
d11(3,21)                                           1 	(obj:0)
d11(3,22)                                           1 	(obj:0)
d11(3,23)                                           1 	(obj:0)
d11(3,24)                                           1 	(obj:0)
d11(3,25)                                           1 	(obj:0)
d11(3,26)                                           1 	(obj:0)
d11(3,27)                                           1 	(obj:0)
d11(3,28)                                           1 	(obj:0)
d11(3,29)                                           1 	(obj:0)
d11(3,30)                                           1 	(obj:0)
d11(3,31)                                           1 	(obj:0)
d11(3,32)                                           1 	(obj:0)
d11(3,33)                                           1 	(obj:0)
d11(3,34)                                           1 	(obj:0)
d11(3,35)                                           1 	(obj:0)
d11(3,36)                                           1 	(obj:0)
d11(3,37)                                           1 	(obj:0)
d11(3,38)                                           1 	(obj:0)
d11(3,39)                                           1 	(obj:0)
d11(4,40)                                           1 	(obj:0)
d11(4,41)                                           1 	(obj:0)
d11(4,43)                                           1 	(obj:0)
d11(4,44)                                           1 	(obj:0)
d11(4,46)                                           1 	(obj:0)
d11(4,47)                                           1 	(obj:0)
d11(4,49)                                           1 	(obj:0)
d11(4,50)                                           1 	(obj:0)
d11(4,52)                                           1 	(obj:0)
d11(4,53)                                           1 	(obj:0)
d11(4,55)                                           1 	(obj:0)
d11(4,56)                                           1 	(obj:0)
d11(4,58)                                           1 	(obj:0)
d11(4,59)                                           1 	(obj:0)
d11(4,61)                                           1 	(obj:0)
d11(4,62)                                           1 	(obj:0)
d11(4,64)                                           1 	(obj:0)
d11(4,65)                                           1 	(obj:0)
d11(4,67)                                           1 	(obj:0)
d11(4,68)                                           1 	(obj:0)
d11(4,70)                                           1 	(obj:0)
d11(4,71)                                           1 	(obj:0)
d11(4,73)                                           1 	(obj:0)
d11(4,74)                                           1 	(obj:0)
d11(4,76)                                           1 	(obj:0)
d11(4,77)                                           1 	(obj:0)
d11(4,79)                                           1 	(obj:0)
d11(4,80)                                           1 	(obj:0)
d11(4,82)                                           1 	(obj:0)
d11(4,83)                                           1 	(obj:0)
d11(4,85)                                           1 	(obj:0)
d11(4,86)                                           1 	(obj:0)
d11(4,88)                                           1 	(obj:0)
d11(4,89)                                           1 	(obj:0)
d11(4,91)                                           1 	(obj:0)
d11(4,92)                                           1 	(obj:0)
d11(4,94)                                           1 	(obj:0)
d11(4,95)                                           1 	(obj:0)
d11(4,97)                                           1 	(obj:0)
d11(4,98)                                           1 	(obj:0)
d11(4,99)                                           1 	(obj:0)
d11(4,100)                                          1 	(obj:0)
d11(4,101)                                          1 	(obj:0)
d11(4,103)                                          1 	(obj:0)
d11(4,104)                                          1 	(obj:0)
d11(4,106)                                          1 	(obj:0)
d11(4,107)                                          1 	(obj:0)
d11(4,109)                                          1 	(obj:0)
d11(4,110)                                          1 	(obj:0)
d11(4,112)                                          1 	(obj:0)
d11(4,113)                                          1 	(obj:0)
d11(4,115)                                          1 	(obj:0)
d11(4,116)                                          1 	(obj:0)
d11(4,118)                                          1 	(obj:0)
d11(4,119)                                          1 	(obj:0)
d12(2,6)                                            1 	(obj:0)
d12(2,9)                                            1 	(obj:0)
d12(2,12)                                           1 	(obj:0)
d21(3,13)                                           1 	(obj:0)
d21(4,40)                                           1 	(obj:0)
d21(4,41)                                           1 	(obj:0)
d21(4,42)                                           1 	(obj:0)
d21(4,43)                                           1 	(obj:0)
d21(4,44)                                           1 	(obj:0)
d21(4,45)                                           1 	(obj:0)
d21(4,46)                                           1 	(obj:0)
d21(4,47)                                           1 	(obj:0)
d21(4,49)                                           1 	(obj:0)
d21(4,50)                                           1 	(obj:0)
d21(4,51)                                           1 	(obj:0)
d21(4,52)                                           1 	(obj:0)
d21(4,53)                                           1 	(obj:0)
d21(4,55)                                           1 	(obj:0)
d21(4,58)                                           1 	(obj:0)
d21(4,59)                                           1 	(obj:0)
d21(4,60)                                           1 	(obj:0)
d21(4,61)                                           1 	(obj:0)
d21(4,62)                                           1 	(obj:0)
d21(4,64)                                           1 	(obj:0)
d21(4,67)                                           1 	(obj:0)
d21(4,68)                                           1 	(obj:0)
d21(4,69)                                           1 	(obj:0)
d21(4,70)                                           1 	(obj:0)
d21(4,71)                                           1 	(obj:0)
d21(4,73)                                           1 	(obj:0)
d21(4,76)                                           1 	(obj:0)
d21(4,77)                                           1 	(obj:0)
d21(4,79)                                           1 	(obj:0)
d21(4,80)                                           1 	(obj:0)
d21(4,85)                                           1 	(obj:0)
d21(4,86)                                           1 	(obj:0)
d21(4,88)                                           1 	(obj:0)
d21(4,94)                                           1 	(obj:0)
d21(4,95)                                           1 	(obj:0)
d21(4,97)                                           1 	(obj:0)
d21(4,103)                                          1 	(obj:0)
d21(4,112)                                          1 	(obj:0)
STE(1,1)                             10826.7817933343 	(obj:0)
STE(0,0)                                        14175 	(obj:0)
STE(1,2)                             11823.5477966676 	(obj:0)
STE(1,3)                                        13041 	(obj:0)
STE(2,4)                             8696.01579000101 	(obj:0)
STE(2,5)                              9692.7817933343 	(obj:0)
STE(2,6)                             10605.3451271843 	(obj:0)
STE(2,7)                              9692.7817933343 	(obj:0)
STE(2,8)                             10689.5477966676 	(obj:0)
STE(2,9)                             11602.1111305176 	(obj:0)
STE(2,10)                            10910.2339966667 	(obj:0)
STE(2,11)                             11907.000000001 	(obj:0)
STE(2,12)                              12819.56333385 	(obj:0)
STE(3,13)                            557.967943333419 	(obj:0)
STE(3,14)                            1554.73394666671 	(obj:0)
STE(3,15)                            2772.18615000009 	(obj:0)
STE(3,16)                            1554.73394666671 	(obj:0)
STE(3,17)                                  2551.49995 	(obj:0)
STE(3,18)                            3768.95215333338 	(obj:0)
STE(3,19)                             2467.2972805167 	(obj:0)
STE(3,20)                            3464.06328384999 	(obj:0)
STE(3,21)                            4681.51548718337 	(obj:0)
STE(3,22)                            1554.73394666671 	(obj:0)
STE(3,23)                                  2551.49995 	(obj:0)
STE(3,24)                             3768.9521533333 	(obj:0)
STE(3,25)                                  2551.49995 	(obj:0)
STE(3,26)                            3548.26595333329 	(obj:0)
STE(3,27)                            4765.71815666667 	(obj:0)
STE(3,28)                            3464.06328385004 	(obj:0)
STE(3,29)                            4460.82928718334 	(obj:0)
STE(3,30)                            5678.28149051671 	(obj:0)
STE(3,31)                            2772.18614999912 	(obj:0)
STE(3,32)                            3768.95215333242 	(obj:0)
STE(3,33)                            4986.40435666579 	(obj:0)
STE(3,34)                            3768.95215333338 	(obj:0)
STE(3,35)                            4765.71815666667 	(obj:0)
STE(3,36)                            5983.17036000011 	(obj:0)
STE(3,37)                            4681.51548718239 	(obj:0)
STE(3,38)                            5678.28149051568 	(obj:0)
STE(3,39)                            6895.73369384906 	(obj:0)
STE(4,40)                           -2790.25026333325 	(obj:0)
STE(4,41)                           -1793.48425999996 	(obj:0)
STE(4,42)                           -576.032056666581 	(obj:0)
STE(4,43)                           -1793.48425999996 	(obj:0)
STE(4,44)                           -796.718256666671 	(obj:0)
STE(4,45)                             420.73394666671 	(obj:0)
STE(4,46)                           -576.032056666584 	(obj:0)
STE(4,47)                            420.733946666706 	(obj:0)
STE(4,48)                            1638.18615000009 	(obj:0)
STE(4,49)                           -1793.48425999996 	(obj:0)
STE(4,50)                           -796.718256666672 	(obj:0)
STE(4,51)                            420.733946666709 	(obj:0)
STE(4,52)                           -796.718256666672 	(obj:0)
STE(4,53)                            200.047746666619 	(obj:0)
STE(4,54)                                  1417.49995 	(obj:0)
STE(4,55)                             420.73394666671 	(obj:0)
STE(4,56)                                  1417.49995 	(obj:0)
STE(4,57)                            2634.95215333338 	(obj:0)
STE(4,58)                           -880.920926149974 	(obj:0)
STE(4,59)                            115.845077183317 	(obj:0)
STE(4,60)                             1333.2972805167 	(obj:0)
STE(4,61)                            115.845077183318 	(obj:0)
STE(4,62)                            1112.61108051661 	(obj:0)
STE(4,63)                            2330.06328384999 	(obj:0)
STE(4,64)                            1333.29728051669 	(obj:0)
STE(4,65)                            2330.06328384998 	(obj:0)
STE(4,66)                            3547.51548718337 	(obj:0)
STE(4,67)                           -1793.48425999996 	(obj:0)
STE(4,68)                            -796.71825666667 	(obj:0)
STE(4,69)                            420.733946666711 	(obj:0)
STE(4,70)                           -796.718256666672 	(obj:0)
STE(4,71)                            200.047746666619 	(obj:0)
STE(4,72)                                  1417.49995 	(obj:0)
STE(4,73)                            420.733946666624 	(obj:0)
STE(4,74)                                  1417.49995 	(obj:0)
STE(4,75)                             2634.9521533333 	(obj:0)
STE(4,76)                           -796.718256666671 	(obj:0)
STE(4,77)                             200.04774666662 	(obj:0)
STE(4,78)                                  1417.49995 	(obj:0)
STE(4,79)                             200.04774666662 	(obj:0)
STE(4,80)                            1196.81374999991 	(obj:0)
STE(4,81)                            2414.26595333329 	(obj:0)
STE(4,82)                                  1417.49995 	(obj:0)
STE(4,83)                            2414.26595333329 	(obj:0)
STE(4,84)                            3631.71815666667 	(obj:0)
STE(4,85)                            115.845077183373 	(obj:0)
STE(4,86)                            1112.61108051666 	(obj:0)
STE(4,87)                            2330.06328385004 	(obj:0)
STE(4,88)                            1112.61108051666 	(obj:0)
STE(4,89)                            2109.37708384995 	(obj:0)
STE(4,90)                            3326.82928718334 	(obj:0)
STE(4,91)                            2330.06328385004 	(obj:0)
STE(4,92)                            3326.82928718333 	(obj:0)
STE(4,93)                            4544.28149051671 	(obj:0)
STE(4,94)                           -576.032056667547 	(obj:0)
STE(4,95)                            420.733946665743 	(obj:0)
STE(4,96)                            1638.18614999912 	(obj:0)
STE(4,97)                            420.733946665743 	(obj:0)
STE(4,98)                            1417.49994999903 	(obj:0)
STE(4,99)                            2634.95215333241 	(obj:0)
STE(4,100)                           1638.18614999912 	(obj:0)
STE(4,101)                           2634.95215333241 	(obj:0)
STE(4,102)                           3852.40435666579 	(obj:0)
STE(4,103)                            420.73394666671 	(obj:0)
STE(4,104)                                 1417.49995 	(obj:0)
STE(4,105)                           2634.95215333338 	(obj:0)
STE(4,106)                                 1417.49995 	(obj:0)
STE(4,107)                           2414.26595333329 	(obj:0)
STE(4,108)                           3631.71815666667 	(obj:0)
STE(4,109)                           2634.95215333344 	(obj:0)
STE(4,110)                           3631.71815666673 	(obj:0)
STE(4,111)                           4849.17036000011 	(obj:0)
STE(4,112)                           1333.29728051572 	(obj:0)
STE(4,113)                           2330.06328384901 	(obj:0)
STE(4,114)                           3547.51548718239 	(obj:0)
STE(4,115)                           2330.06328384901 	(obj:0)
STE(4,116)                            3326.8292871823 	(obj:0)
STE(4,117)                           4544.28149051568 	(obj:0)
STE(4,118)                           3547.51548718239 	(obj:0)
STE(4,119)                           4544.28149051568 	(obj:0)
STE(4,120)                           5761.73369384906 	(obj:0)
y1(4,100)                                 1992.796386 	(obj:0)
y1(4,101)                            1095.70698300004 	(obj:0)
y1(4,103)                                 1992.796386 	(obj:0)
y1(4,104)                            1095.70698300004 	(obj:0)
y1(4,106)                                 1992.796386 	(obj:0)
y1(4,107)                            1095.70698300004 	(obj:0)
y1(4,109)                                 1992.796386 	(obj:0)
y1(4,110)                            1095.70698300004 	(obj:0)
y1(4,112)                                 1992.796386 	(obj:0)
y1(4,113)                            1095.70698300004 	(obj:0)
y1(4,115)                                 1992.796386 	(obj:0)
y1(4,116)                            1095.70698300004 	(obj:0)
y1(4,118)                                 1992.796386 	(obj:0)
y1(4,119)                            1095.70698300004 	(obj:0)
AVE(3)                                3399.3204933139 	(obj:0)
AVE(4)                               3353.21046544222 	(obj:0)
WG(1)                                3134.60043707458 	(obj:10)
WG(3)                                 3399.3204933139 	(obj:10)
WG(4)                                3353.21046544222 	(obj:10)
BG(1)                                1361.31791292448 	(obj:10)
BG(2)                                3377.84999999971 	(obj:10)
BG(3)                                5495.42099546245 	(obj:10)
BG(4)                                1142.70788455781 	(obj:10)
AVE(1)                               3134.60043707458 	(obj:0)
WB(2)                                3326.45170866614 	(obj:0)
AVE(2)                               3326.45170866643 	(obj:0)
y1(1,1)                              1992.79638599913 	(obj:0)
y1(1,2)                              1095.70698299916 	(obj:0)
y1(2,4)                              897.089402999962 	(obj:0)
y1(2,7)                              897.089402999962 	(obj:0)
y1(2,10)                             897.089402999953 	(obj:0)
y1(3,13)                             6303.64306200084 	(obj:0)
y1(3,14)                             5406.55365900087 	(obj:0)
y1(3,15)                             4310.84667600083 	(obj:0)
y1(3,16)                             6303.64306200084 	(obj:0)
y1(3,17)                             5406.55365900087 	(obj:0)
y1(3,18)                             4310.84667600083 	(obj:0)
y1(3,19)                             6303.64306200084 	(obj:0)
y1(3,20)                             5406.55365900087 	(obj:0)
y1(3,21)                             4310.84667600083 	(obj:0)
y1(3,22)                             6303.64306200084 	(obj:0)
y1(3,23)                             5406.55365900087 	(obj:0)
y1(3,24)                             4310.84667600091 	(obj:0)
y1(3,25)                             6303.64306200084 	(obj:0)
y1(3,26)                             5406.55365900087 	(obj:0)
y1(3,27)                             4310.84667600083 	(obj:0)
y1(3,28)                             6303.64306200084 	(obj:0)
y1(3,29)                             5406.55365900087 	(obj:0)
y1(3,30)                             4310.84667600083 	(obj:0)
y1(3,31)                             6303.64306200084 	(obj:0)
y1(3,32)                             5406.55365900087 	(obj:0)
y1(3,33)                             4310.84667600083 	(obj:0)
y1(3,34)                             6303.64306200084 	(obj:0)
y1(3,35)                             5406.55365900087 	(obj:0)
y1(3,36)                             4310.84667600078 	(obj:0)
y1(3,37)                             6303.64306200084 	(obj:0)
y1(3,38)                             5406.55365900087 	(obj:0)
y1(3,39)                             4310.84667600083 	(obj:0)
y1(4,40)                                  1992.796386 	(obj:0)
y1(4,41)                             1095.70698300004 	(obj:0)
y1(4,43)                                  1992.796386 	(obj:0)
y1(4,44)                             1095.70698300004 	(obj:0)
y1(4,46)                                  1992.796386 	(obj:0)
y1(4,47)                             1095.70698300004 	(obj:0)
y1(4,49)                                  1992.796386 	(obj:0)
y1(4,50)                             1095.70698300004 	(obj:0)
y1(4,52)                                  1992.796386 	(obj:0)
y1(4,53)                             1095.70698300004 	(obj:0)
y1(4,55)                                  1992.796386 	(obj:0)
y1(4,56)                             1095.70698300004 	(obj:0)
y1(4,58)                                  1992.796386 	(obj:0)
y1(4,59)                             1095.70698300004 	(obj:0)
y1(4,61)                                  1992.796386 	(obj:0)
y1(4,62)                             1095.70698300004 	(obj:0)
y1(4,64)                                  1992.796386 	(obj:0)
y1(4,65)                             1095.70698300004 	(obj:0)
y1(4,67)                                  1992.796386 	(obj:0)
y1(4,68)                             1095.70698300004 	(obj:0)
y1(4,70)                                  1992.796386 	(obj:0)
y1(4,71)                             1095.70698300004 	(obj:0)
y1(4,73)                                  1992.796386 	(obj:0)
y1(4,74)                             1095.70698299997 	(obj:0)
y1(4,76)                                  1992.796386 	(obj:0)
y1(4,77)                             1095.70698300004 	(obj:0)
y1(4,79)                                  1992.796386 	(obj:0)
y1(4,80)                             1095.70698300004 	(obj:0)
y1(4,82)                                  1992.796386 	(obj:0)
y1(4,83)                             1095.70698300004 	(obj:0)
y1(4,85)                                  1992.796386 	(obj:0)
y1(4,86)                             1095.70698300004 	(obj:0)
y1(4,88)                                  1992.796386 	(obj:0)
y1(4,89)                             1095.70698300004 	(obj:0)
y1(4,91)                                  1992.796386 	(obj:0)
y1(4,92)                             1095.70698300004 	(obj:0)
y1(4,94)                                  1992.796386 	(obj:0)
y1(4,95)                             1095.70698300004 	(obj:0)
y1(4,97)                                  1992.796386 	(obj:0)
y1(4,98)                             1095.70698300004 	(obj:0)
y2(2,6)                              960.592982999987 	(obj:0)
y2(2,9)                              960.592983000045 	(obj:0)
y2(2,12)                             960.592982999987 	(obj:0)
